48 0
5 24
20 30
27 25
50 45
47 35
30 40.5
16 24.5
38 37.5
46 27.5
5 45.5
28 33.5
21 39.5
27 72
22 30
12 56
27 53
10 66
39 26
43 36
4 62.5
21 41.5
8 58.5
10 48.5
32 47.5
30 68.5
43 72.5
12 64
50 82
27 53
43 62
6 70
43 68
23 70
26 77.5
44 105.5
26 88.5
10 62.5
37 98.5
10 62.5
42 103.5
14 108
25 106
19 91
27 94
43 98
40 82
35 81
18 93.5
17 87.5
